p wcnf 162 243 244 
1 66 -54 0 
1 113 -150 0 
1 119 150 0 
1 -132 -154 0 
1 -10 101 0 
1 -61 136 0 
1 -62 82 0 
1 153 -56 0 
1 -147 -86 0 
1 -20 19 0 
1 83 129 0 
1 102 -157 0 
1 74 66 0 
1 -41 116 0 
1 77 -90 0 
1 -35 93 0 
1 -74 31 0 
1 -27 -5 0 
1 124 -55 0 
1 115 129 0 
1 -23 -81 0 
1 90 -59 0 
1 -19 -133 0 
1 63 -55 0 
1 -39 -66 0 
1 -47 81 0 
1 -139 -12 0 
1 59 58 0 
1 162 34 0 
1 -97 -93 0 
1 -23 -14 0 
1 158 -1 0 
1 -108 22 0 
1 116 127 0 
1 127 -67 0 
1 128 -43 0 
1 147 -19 0 
1 -42 -118 0 
1 -114 68 0 
1 -144 54 0 
1 -30 61 0 
1 102 54 0 
1 100 51 0 
1 32 -99 0 
1 146 142 0 
1 121 101 0 
1 101 84 0 
1 -5 -72 0 
1 -162 90 0 
1 -121 126 0 
1 48 150 0 
1 98 49 0 
1 140 -32 0 
1 156 -109 0 
1 90 -103 0 
1 -151 -132 0 
1 45 92 0 
1 -5 52 0 
1 104 -79 0 
1 -157 22 0 
1 111 -146 0 
1 -115 119 0 
1 144 -148 0 
1 68 122 0 
1 -136 15 0 
1 -8 -63 0 
1 -40 -138 0 
1 149 -128 0 
1 -28 155 0 
1 -130 -50 0 
1 -133 -42 0 
1 -142 71 0 
1 -34 -78 0 
1 -150 -123 0 
1 -37 52 0 
1 -27 155 0 
1 115 -3 0 
1 64 -81 0 
1 -93 -83 0 
1 -96 -56 0 
1 -59 105 0 
1 116 -87 0 
1 -123 129 0 
1 62 -106 0 
1 -31 123 0 
1 -123 101 0 
1 -124 116 0 
1 -141 78 0 
1 -122 -116 0 
1 -40 111 0 
1 144 9 0 
1 -119 112 0 
1 -61 -94 0 
1 19 65 0 
1 -41 -155 0 
1 -104 162 0 
1 87 38 0 
1 -60 38 0 
1 -96 -147 0 
1 -114 158 0 
1 -140 108 0 
1 76 91 0 
1 -55 -89 0 
1 -130 149 0 
1 -37 85 0 
1 -18 -73 0 
1 -21 157 0 
1 71 157 0 
1 -53 34 0 
1 -88 -46 0 
1 -73 -90 0 
1 -149 -97 0 
1 129 -113 0 
1 17 66 0 
1 -72 -107 0 
1 131 -152 0 
1 -94 162 0 
1 -138 -157 0 
1 -70 -45 0 
1 151 137 0 
1 -160 146 0 
1 71 88 0 
1 55 102 0 
1 -136 71 0 
1 -122 5 0 
1 66 27 0 
1 126 130 0 
1 -18 -8 0 
1 -16 24 0 
1 128 133 0 
1 84 106 0 
1 127 156 0 
1 72 49 0 
1 -13 -135 0 
1 -127 22 0 
1 132 -158 0 
1 -33 14 0 
1 -115 94 0 
1 -77 63 0 
1 154 98 0 
1 77 95 0 
1 -108 -54 0 
1 146 33 0 
1 10 -87 0 
1 117 99 0 
1 -83 -154 0 
1 53 -94 0 
1 151 17 0 
1 -147 42 0 
1 118 -152 0 
1 42 -89 0 
1 74 124 0 
1 129 -51 0 
1 -149 -101 0 
1 -110 -3 0 
1 -53 -89 0 
1 -56 41 0 
1 -94 153 0 
1 -145 -146 0 
1 -110 -114 0 
1 36 39 0 
1 63 -104 0 
1 71 126 0 
1 -76 132 0 
1 123 107 0 
1 49 -95 0 
1 -57 -145 0 
1 153 28 0 
1 -65 -5 0 
1 150 41 0 
1 143 5 0 
1 -32 -43 0 
1 -27 10 0 
1 -99 16 0 
1 -69 -65 0 
1 96 13 0 
1 13 28 0 
1 -34 -33 0 
1 98 160 0 
1 -92 -33 0 
1 73 -31 0 
1 116 -27 0 
1 -48 24 0 
1 -149 30 0 
1 -55 -90 0 
1 68 -42 0 
1 -21 -56 0 
1 -16 -154 0 
1 -3 107 0 
1 -131 8 0 
1 115 -153 0 
1 12 156 0 
1 -49 114 0 
1 117 140 0 
1 17 124 0 
1 73 -29 0 
1 64 149 0 
1 -46 -93 0 
1 64 -53 0 
1 -4 -99 0 
1 138 4 0 
1 155 -56 0 
1 48 43 0 
1 -66 -78 0 
1 147 111 0 
1 128 -87 0 
1 144 116 0 
1 -160 -33 0 
1 53 -113 0 
1 38 112 0 
1 -73 -127 0 
1 152 120 0 
1 -43 41 0 
1 -111 72 0 
1 49 53 0 
1 93 154 0 
1 92 -135 0 
1 -126 -159 0 
1 70 144 0 
1 23 -21 0 
1 -103 41 0 
1 52 30 0 
1 88 -112 0 
1 66 -101 0 
1 -126 -58 0 
1 156 102 0 
1 -4 -113 0 
1 -43 -89 0 
1 -117 -14 0 
1 116 67 0 
1 -145 3 0 
1 -17 156 0 
1 47 8 0 
1 -118 129 0 
1 -71 -131 0 
1 25 -11 0 
1 124 -100 0 
1 99 71 0 
1 76 -103 0 
1 45 -128 0 
1 -17 -44 0 
1 131 -140 0 
1 43 152 0 
